c 218_4_checker_5cl.cnf
c
c field = 218
c formula set type = 4_checker_5cl
c
p cnf 5 6
314 
344 
374 
404 
-284 
315 
345 
375 
405 
-285 
306 
338 
370 
402 
-274 
307 
339 
371 
403 
-275 
322 
350 
378 
406 
-294 
323 
351 
379 
407 
-295 
